(set-info :source |printed by MathSAT|)
(declare-fun hhv_ULTIMATE.start_ULTIMATE.startEXIT_0_Int () Int)
(declare-fun .x.519 () Int)
(declare-fun hhv_ULTIMATE.start_ULTIMATE.startEXIT_1_Array_Int_Int () (Array Int Int))
(declare-fun .x.520 () (Array Int Int))
(declare-fun hhv_ULTIMATE.start_ULTIMATE.startEXIT_2_Array_Int_Int () (Array Int Int))
(declare-fun .x.521 () (Array Int Int))
(declare-fun hhv_ULTIMATE.start_ULTIMATE.startEXIT_3_Array_Int_Array_Int_Int () (Array Int (Array Int Int)))
(declare-fun .x.522 () (Array Int (Array Int Int)))
(declare-fun hhv_ULTIMATE.start_ULTIMATE.startEXIT_4_Array_Int_Array_Int_Int () (Array Int (Array Int Int)))
(declare-fun .x.523 () (Array Int (Array Int Int)))
(declare-fun hhv_ULTIMATE.start_ULTIMATE.startEXIT_5_Int () Int)
(declare-fun .x.524 () Int)
(declare-fun hhv_ULTIMATE.start_ULTIMATE.startEXIT_6_Int () Int)
(declare-fun .x.525 () Int)
(declare-fun hhv_ULTIMATE.start_ULTIMATE.startEXIT_7_Array_Int_Int () (Array Int Int))
(declare-fun .x.526 () (Array Int Int))
(declare-fun hhv_ULTIMATE.start_ULTIMATE.startEXIT_8_Array_Int_Int () (Array Int Int))
(declare-fun .x.527 () (Array Int Int))
(declare-fun hhv_ULTIMATE.start_ULTIMATE.startEXIT_9_Int () Int)
(declare-fun .x.528 () Int)
(declare-fun hhv_ULTIMATE.start_ULTIMATE.startEXIT_10_Int () Int)
(declare-fun .x.529 () Int)
(declare-fun hhv_ULTIMATE.start_ULTIMATE.startEXIT_11_Int () Int)
(declare-fun .x.530 () Int)
(declare-fun hhv_ULTIMATE.start_ULTIMATE.startEXIT_12_Int () Int)
(declare-fun .x.531 () Int)
(declare-fun hhv_ULTIMATE.start_ULTIMATE.startEXIT_13_Int () Int)
(declare-fun .x.532 () Int)
(declare-fun hhv_ULTIMATE.start_ULTIMATE.startEXIT_14_Int () Int)
(declare-fun .x.533 () Int)
(declare-fun hhv_ULTIMATE.start_ULTIMATE.startEXIT_15_Int () Int)
(declare-fun .x.534 () Int)
(declare-fun hhv_ULTIMATE.start_ULTIMATE.startEXIT_16_Int () Int)
(declare-fun .x.535 () Int)
(declare-fun hhv_ULTIMATE.start_ULTIMATE.startEXIT_17_Int () Int)
(declare-fun .x.536 () Int)
(declare-fun hhv_ULTIMATE.start_ULTIMATE.startEXIT_18_Int () Int)
(declare-fun .x.537 () Int)
(declare-fun hhv_ULTIMATE.start_ULTIMATE.startEXIT_19_Int () Int)
(declare-fun .x.538 () Int)
(declare-fun hhv_ULTIMATE.start_ULTIMATE.startEXIT_20_Int () Int)
(declare-fun .x.539 () Int)
(declare-fun hbv_ULTIMATE.start_L2-1_21_Bool () Bool)
(declare-fun hhv_ULTIMATE.start_ULTIMATE.startEXIT_21_Bool () Bool)
(declare-fun .loc.5 () Bool)
(declare-fun .loc.9 () Bool)
(declare-fun .loc.6 () Bool)
(declare-fun .loc.10 () Bool)
(declare-fun .loc.7 () Bool)
(declare-fun .loc.11 () Bool)
(declare-fun .loc.8 () Bool)
(declare-fun .loc.12 () Bool)
(declare-fun hbv_ULTIMATE.start_L-1_1_Array_Int_Int () (Array Int Int))
(define-fun .def_8 () Int (! hhv_ULTIMATE.start_ULTIMATE.startEXIT_0_Int :next |.x.519|))
(define-fun .def_10 () (Array Int Int) (! hhv_ULTIMATE.start_ULTIMATE.startEXIT_1_Array_Int_Int :next |.x.520|))
(define-fun .def_12 () (Array Int Int) (! hhv_ULTIMATE.start_ULTIMATE.startEXIT_2_Array_Int_Int :next |.x.521|))
(define-fun .def_14 () (Array Int (Array Int Int)) (! hhv_ULTIMATE.start_ULTIMATE.startEXIT_3_Array_Int_Array_Int_Int :next |.x.522|))
(define-fun .def_16 () (Array Int (Array Int Int)) (! hhv_ULTIMATE.start_ULTIMATE.startEXIT_4_Array_Int_Array_Int_Int :next |.x.523|))
(define-fun .def_18 () Int (! hhv_ULTIMATE.start_ULTIMATE.startEXIT_5_Int :next |.x.524|))
(define-fun .def_20 () Int (! hhv_ULTIMATE.start_ULTIMATE.startEXIT_6_Int :next |.x.525|))
(define-fun .def_22 () (Array Int Int) (! hhv_ULTIMATE.start_ULTIMATE.startEXIT_7_Array_Int_Int :next |.x.526|))
(define-fun .def_24 () (Array Int Int) (! hhv_ULTIMATE.start_ULTIMATE.startEXIT_8_Array_Int_Int :next |.x.527|))
(define-fun .def_26 () Int (! hhv_ULTIMATE.start_ULTIMATE.startEXIT_9_Int :next |.x.528|))
(define-fun .def_28 () Int (! hhv_ULTIMATE.start_ULTIMATE.startEXIT_10_Int :next |.x.529|))
(define-fun .def_30 () Int (! hhv_ULTIMATE.start_ULTIMATE.startEXIT_11_Int :next |.x.530|))
(define-fun .def_32 () Int (! hhv_ULTIMATE.start_ULTIMATE.startEXIT_12_Int :next |.x.531|))
(define-fun .def_34 () Int (! hhv_ULTIMATE.start_ULTIMATE.startEXIT_13_Int :next |.x.532|))
(define-fun .def_36 () Int (! hhv_ULTIMATE.start_ULTIMATE.startEXIT_14_Int :next |.x.533|))
(define-fun .def_38 () Int (! hhv_ULTIMATE.start_ULTIMATE.startEXIT_15_Int :next |.x.534|))
(define-fun .def_40 () Int (! hhv_ULTIMATE.start_ULTIMATE.startEXIT_16_Int :next |.x.535|))
(define-fun .def_42 () Int (! hhv_ULTIMATE.start_ULTIMATE.startEXIT_17_Int :next |.x.536|))
(define-fun .def_44 () Int (! hhv_ULTIMATE.start_ULTIMATE.startEXIT_18_Int :next |.x.537|))
(define-fun .def_46 () Int (! hhv_ULTIMATE.start_ULTIMATE.startEXIT_19_Int :next |.x.538|))
(define-fun .def_48 () Int (! hhv_ULTIMATE.start_ULTIMATE.startEXIT_20_Int :next |.x.539|))
(define-fun .def_50 () Bool (! hbv_ULTIMATE.start_L2-1_21_Bool :next |hhv_ULTIMATE.start_ULTIMATE.startEXIT_21_Bool|))
(define-fun .def_52 () Bool (! .loc.5 :next |.loc.9|))
(define-fun .def_54 () Bool (! .loc.6 :next |.loc.10|))
(define-fun .def_56 () Bool (! .loc.7 :next |.loc.11|))
(define-fun .def_58 () Bool (! .loc.8 :next |.loc.12|))
(define-fun .def_88 () (Array Int Int) (! hbv_ULTIMATE.start_L-1_1_Array_Int_Int :next |.xtv.1|))
(define-fun .def_68 () Bool (not .def_54))
(define-fun .def_522 () Bool (and .def_52 .def_68))
(define-fun .def_75 () Bool (not .def_56))
(define-fun .def_523 () Bool (and .def_75 .def_522))
(define-fun .def_79 () Bool (not .def_58))
(define-fun .def_524 () Bool (and .def_79 .def_523))
(define-fun .def_516 () Bool (= .def_10 .def_12))
(define-fun .def_515 () Bool (= .def_22 .def_24))
(define-fun .def_517 () Bool (and .def_515 .def_516))
(define-fun .def_514 () Bool (= .def_18 .def_20))
(define-fun .def_518 () Bool (and .def_514 .def_517))
(define-fun .def_513 () Bool (not .def_50))
(define-fun .def_519 () Bool (and .def_513 .def_518))
(define-fun .def_512 () Bool (= .def_14 .def_16))
(define-fun .def_520 () Bool (and .def_512 .def_519))
(define-fun .def_511 () Bool (= .def_26 .def_28))
(define-fun .def_521 () Bool (and .def_511 .def_520))
(define-fun .def_525 () Bool (! (and .def_521 .def_524) :init true))
(define-fun .def_508 () Bool (= .def_28 .x.529))
(define-fun .def_506 () Bool (= .def_24 .x.527))
(define-fun .def_504 () Bool (= .def_20 .x.525))
(define-fun .def_502 () Bool (= .def_16 .x.523))
(define-fun .def_500 () Bool (= .def_8 .x.519))
(define-fun .def_499 () Bool (= .def_12 .x.521))
(define-fun .def_501 () Bool (and .def_499 .def_500))
(define-fun .def_503 () Bool (and .def_501 .def_502))
(define-fun .def_505 () Bool (and .def_503 .def_504))
(define-fun .def_507 () Bool (and .def_505 .def_506))
(define-fun .def_509 () Bool (and .def_507 .def_508))
(define-fun .def_120 () Bool (= .def_10 .x.520))
(define-fun .def_462 () Bool (and hhv_ULTIMATE.start_ULTIMATE.startEXIT_21_Bool .def_120))
(define-fun .def_60 () Bool (= .def_30 .x.530))
(define-fun .def_463 () Bool (and .def_60 .def_462))
(define-fun .def_122 () Bool (= .def_32 .x.531))
(define-fun .def_464 () Bool (and .def_122 .def_463))
(define-fun .def_124 () Bool (= .def_34 .x.532))
(define-fun .def_465 () Bool (and .def_124 .def_464))
(define-fun .def_127 () Bool (= .def_38 .x.534))
(define-fun .def_466 () Bool (and .def_127 .def_465))
(define-fun .def_137 () Bool (not .def_52))
(define-fun .def_467 () Bool (and .def_137 .def_466))
(define-fun .def_458 () Bool (= .x.534 0))
(define-fun .def_456 () (Array Int Int) (store .def_10 .def_34 0))
(define-fun .def_457 () Bool (= .x.520 .def_456))
(define-fun .def_459 () Bool (and .def_457 .def_458))
(define-fun .def_460 () Bool (or .def_50 .def_459))
(define-fun .def_452 () Bool (= .x.530 .x.534))
(define-fun .def_453 () Bool (or hhv_ULTIMATE.start_ULTIMATE.startEXIT_21_Bool .def_452))
(define-fun .def_454 () Bool (and .def_52 .def_453))
(define-fun .def_73 () Bool (= .def_50 hhv_ULTIMATE.start_ULTIMATE.startEXIT_21_Bool))
(define-fun .def_455 () Bool (and .def_73 .def_454))
(define-fun .def_461 () Bool (and .def_455 .def_460))
(define-fun .def_468 () Bool (or .def_461 .def_467))
(define-fun .def_450 () Bool (and .def_56 .def_68))
(define-fun .def_451 () Bool (and .loc.10 .def_450))
(define-fun .def_469 () Bool (and .def_451 .def_468))
(define-fun .def_327 () Bool (= .def_36 0))
(define-fun .def_448 () Bool (or .def_50 .def_327))
(define-fun .def_121 () Bool (and .def_60 .def_120))
(define-fun .def_123 () Bool (and .def_121 .def_122))
(define-fun .def_125 () Bool (and .def_123 .def_124))
(define-fun .def_416 () Bool (and .def_125 .def_127))
(define-fun .def_443 () Bool (and .def_52 .def_416))
(define-fun .def_444 () Bool (and .def_54 .def_443))
(define-fun .def_445 () Bool (and .def_73 .def_444))
(define-fun .def_217 () Bool (not .loc.10))
(define-fun .def_446 () Bool (and .def_217 .def_445))
(define-fun .def_447 () Bool (and .def_75 .def_446))
(define-fun .def_449 () Bool (and .def_447 .def_448))
(define-fun .def_470 () Bool (or .def_449 .def_469))
(define-fun .def_129 () Bool (= .def_40 .x.535))
(define-fun .def_63 () Bool (= .def_36 .x.533))
(define-fun .def_439 () Bool (and .def_63 .def_129))
(define-fun .def_65 () Bool (= .def_46 .x.538))
(define-fun .def_440 () Bool (and .def_65 .def_439))
(define-fun .def_441 () Bool (and .loc.11 .def_440))
(define-fun .def_71 () Bool (not .loc.9))
(define-fun .def_442 () Bool (and .def_71 .def_441))
(define-fun .def_471 () Bool (and .def_442 .def_470))
(define-fun .def_435 () Bool (= .x.533 .x.538))
(define-fun .def_431 () Bool (= .x.535 46))
(define-fun .def_432 () Int (ite .def_431 1 0))
(define-fun .def_433 () Bool (= .x.538 .def_432))
(define-fun .def_425 () Int (* 4 .def_48))
(define-fun .def_426 () Int (+ .def_32 .def_425))
(define-fun .def_158 () (Array Int Int) (select .def_14 .def_34))
(define-fun .def_427 () Int (select .def_158 .def_426))
(define-fun .def_428 () Bool (= .x.535 .def_427))
(define-fun .def_378 () Bool (<= 100000 .def_48))
(define-fun .def_424 () Bool (not .def_378))
(define-fun .def_429 () Bool (and .def_424 .def_428))
(define-fun .def_434 () Bool (and .def_429 .def_433))
(define-fun .def_436 () Bool (and .def_434 .def_435))
(define-fun .def_437 () Bool (or .def_50 .def_436))
(define-fun .def_417 () Bool (and .def_54 .def_416))
(define-fun .def_418 () Bool (and .def_137 .def_417))
(define-fun .def_419 () Bool (and .loc.9 .def_418))
(define-fun .def_420 () Bool (and .loc.10 .def_419))
(define-fun .def_421 () Bool (and .def_73 .def_420))
(define-fun .def_422 () Bool (and .def_75 .def_421))
(define-fun .def_77 () Bool (not .loc.11))
(define-fun .def_423 () Bool (and .def_77 .def_422))
(define-fun .def_438 () Bool (and .def_423 .def_437))
(define-fun .def_472 () Bool (or .def_438 .def_471))
(define-fun .def_134 () Bool (= .def_48 .x.539))
(define-fun .def_131 () Bool (= .def_44 .x.537))
(define-fun .def_414 () Bool (and .def_131 .def_134))
(define-fun .def_415 () Bool (and .def_58 .def_414))
(define-fun .def_473 () Bool (and .def_415 .def_472))
(define-fun .def_409 () Int (* (- 1) .x.539))
(define-fun .def_410 () Int (+ .def_48 .def_409))
(define-fun .def_411 () Bool (= .def_410 (- 1)))
(define-fun .def_412 () Bool (or hhv_ULTIMATE.start_ULTIMATE.startEXIT_21_Bool .def_411))
(define-fun .def_126 () Bool (and .def_63 .def_125))
(define-fun .def_128 () Bool (and .def_126 .def_127))
(define-fun .def_400 () Bool (and .def_65 .def_128))
(define-fun .def_401 () Bool (and .def_137 .def_400))
(define-fun .def_402 () Bool (and .def_68 .def_401))
(define-fun .def_403 () Bool (and .loc.10 .def_402))
(define-fun .def_404 () Bool (and .def_71 .def_403))
(define-fun .def_405 () Bool (and .def_73 .def_404))
(define-fun .def_406 () Bool (and .def_75 .def_405))
(define-fun .def_407 () Bool (and .def_77 .def_406))
(define-fun .def_408 () Bool (and .def_79 .def_407))
(define-fun .def_413 () Bool (and .def_408 .def_412))
(define-fun .def_474 () Bool (or .def_413 .def_473))
(define-fun .def_397 () Bool (= .x.539 0))
(define-fun .def_398 () Bool (or .def_50 .def_397))
(define-fun .def_130 () Bool (and .def_128 .def_129))
(define-fun .def_132 () Bool (and .def_130 .def_131))
(define-fun .def_133 () Bool (and .def_65 .def_132))
(define-fun .def_389 () Bool (and .def_52 .def_133))
(define-fun .def_390 () Bool (and .def_58 .def_389))
(define-fun .def_391 () Bool (and .def_68 .def_390))
(define-fun .def_392 () Bool (and .loc.10 .def_391))
(define-fun .def_393 () Bool (and .def_71 .def_392))
(define-fun .def_394 () Bool (and .def_73 .def_393))
(define-fun .def_395 () Bool (and .def_75 .def_394))
(define-fun .def_396 () Bool (and .def_77 .def_395))
(define-fun .def_399 () Bool (and .def_396 .def_398))
(define-fun .def_475 () Bool (or .def_399 .def_474))
(define-fun .def_188 () Bool (and .def_50 .def_120))
(define-fun .def_354 () Bool (and .def_60 .def_188))
(define-fun .def_355 () Bool (and .def_122 .def_354))
(define-fun .def_356 () Bool (and .def_124 .def_355))
(define-fun .def_357 () Bool (and .def_63 .def_356))
(define-fun .def_358 () Bool (and .def_127 .def_357))
(define-fun .def_359 () Bool (and .def_129 .def_358))
(define-fun .def_360 () Bool (and .def_131 .def_359))
(define-fun .def_361 () Bool (and .def_65 .def_360))
(define-fun .def_362 () Bool (and .def_134 .def_361))
(define-fun .def_381 () Bool (and .def_54 .def_362))
(define-fun .def_382 () Bool (and .def_58 .def_381))
(define-fun .def_383 () Bool (and .def_137 .def_382))
(define-fun .def_384 () Bool (and .loc.9 .def_383))
(define-fun .def_385 () Bool (and .loc.11 .def_384))
(define-fun .def_386 () Bool (and .def_73 .def_385))
(define-fun .def_387 () Bool (and .def_217 .def_386))
(define-fun .def_388 () Bool (and .def_75 .def_387))
(define-fun .def_476 () Bool (or .def_388 .def_475))
(define-fun .def_379 () Bool (or .def_50 .def_378))
(define-fun .def_135 () Bool (and .def_133 .def_134))
(define-fun .def_136 () Bool (and .def_54 .def_135))
(define-fun .def_371 () Bool (and .def_58 .def_136))
(define-fun .def_372 () Bool (and .def_137 .def_371))
(define-fun .def_373 () Bool (and .loc.9 .def_372))
(define-fun .def_374 () Bool (and .loc.11 .def_373))
(define-fun .def_375 () Bool (and .def_73 .def_374))
(define-fun .def_376 () Bool (and .def_217 .def_375))
(define-fun .def_377 () Bool (and .def_75 .def_376))
(define-fun .def_380 () Bool (and .def_377 .def_379))
(define-fun .def_477 () Bool (or .def_380 .def_476))
(define-fun .def_363 () Bool (and .def_58 .def_362))
(define-fun .def_364 () Bool (and .def_137 .def_363))
(define-fun .def_365 () Bool (and .def_68 .def_364))
(define-fun .def_366 () Bool (and .loc.9 .def_365))
(define-fun .def_367 () Bool (and .def_73 .def_366))
(define-fun .def_368 () Bool (and .def_217 .def_367))
(define-fun .def_369 () Bool (and .def_75 .def_368))
(define-fun .def_370 () Bool (and .def_77 .def_369))
(define-fun .def_478 () Bool (or .def_370 .def_477))
(define-fun .def_331 () Bool (and .def_58 .def_135))
(define-fun .def_332 () Bool (and .def_137 .def_331))
(define-fun .def_333 () Bool (and .def_68 .def_332))
(define-fun .def_348 () Bool (and .loc.9 .def_333))
(define-fun .def_349 () Bool (and .def_73 .def_348))
(define-fun .def_350 () Bool (and .def_217 .def_349))
(define-fun .def_351 () Bool (and .def_75 .def_350))
(define-fun .def_352 () Bool (and .def_77 .def_351))
(define-fun .def_147 () Bool (<= 100000 .def_42))
(define-fun .def_185 () Bool (or .def_50 .def_147))
(define-fun .def_353 () Bool (and .def_185 .def_352))
(define-fun .def_479 () Bool (or .def_353 .def_478))
(define-fun .def_172 () Bool (= .def_42 .x.536))
(define-fun .def_61 () Bool (= .def_14 .x.522))
(define-fun .def_347 () Bool (and .def_61 .def_172))
(define-fun .def_480 () Bool (and .def_347 .def_479))
(define-fun .def_156 () Int (* 4 .def_42))
(define-fun .def_157 () Int (+ .def_32 .def_156))
(define-fun .def_340 () (Array Int Int) (store .def_158 .def_157 45))
(define-fun .def_341 () (Array Int (Array Int Int)) (store .def_14 .def_34 .def_340))
(define-fun .def_342 () Bool (= .x.522 .def_341))
(define-fun .def_148 () Bool (not .def_147))
(define-fun .def_343 () Bool (and .def_148 .def_342))
(define-fun .def_150 () Int (* (- 1) .x.536))
(define-fun .def_151 () Int (+ .def_42 .def_150))
(define-fun .def_152 () Bool (= .def_151 (- 1)))
(define-fun .def_344 () Bool (and .def_152 .def_343))
(define-fun .def_345 () Bool (or .def_50 .def_344))
(define-fun .def_334 () Bool (and .def_71 .def_333))
(define-fun .def_335 () Bool (and .def_73 .def_334))
(define-fun .def_336 () Bool (and .def_217 .def_335))
(define-fun .def_337 () Bool (and .def_75 .def_336))
(define-fun .def_338 () Bool (and .def_77 .def_337))
(define-fun .def_346 () Bool (and .def_338 .def_345))
(define-fun .def_481 () Bool (or .def_346 .def_480))
(define-fun .def_482 () Bool (and .loc.12 .def_481))
(define-fun .def_328 () Bool (not .def_327))
(define-fun .def_329 () Bool (or .def_50 .def_328))
(define-fun .def_165 () Bool (and .def_61 .def_120))
(define-fun .def_166 () Bool (and .def_60 .def_165))
(define-fun .def_167 () Bool (and .def_122 .def_166))
(define-fun .def_168 () Bool (and .def_124 .def_167))
(define-fun .def_169 () Bool (and .def_63 .def_168))
(define-fun .def_170 () Bool (and .def_127 .def_169))
(define-fun .def_171 () Bool (and .def_129 .def_170))
(define-fun .def_173 () Bool (and .def_171 .def_172))
(define-fun .def_174 () Bool (and .def_131 .def_173))
(define-fun .def_175 () Bool (and .def_65 .def_174))
(define-fun .def_176 () Bool (and .def_134 .def_175))
(define-fun .def_318 () Bool (and .def_52 .def_176))
(define-fun .def_319 () Bool (and .def_54 .def_318))
(define-fun .def_320 () Bool (and .def_58 .def_319))
(define-fun .def_321 () Bool (and .def_71 .def_320))
(define-fun .def_322 () Bool (and .def_73 .def_321))
(define-fun .def_323 () Bool (and .def_217 .def_322))
(define-fun .def_324 () Bool (and .def_75 .def_323))
(define-fun .def_325 () Bool (and .def_77 .def_324))
(define-fun .def_81 () Bool (not .loc.12))
(define-fun .def_326 () Bool (and .def_81 .def_325))
(define-fun .def_330 () Bool (and .def_326 .def_329))
(define-fun .def_483 () Bool (or .def_330 .def_482))
(define-fun .def_189 () Bool (and .def_61 .def_188))
(define-fun .def_190 () Bool (and .def_60 .def_189))
(define-fun .def_191 () Bool (and .def_122 .def_190))
(define-fun .def_192 () Bool (and .def_124 .def_191))
(define-fun .def_193 () Bool (and .def_63 .def_192))
(define-fun .def_194 () Bool (and .def_127 .def_193))
(define-fun .def_195 () Bool (and .def_129 .def_194))
(define-fun .def_196 () Bool (and .def_172 .def_195))
(define-fun .def_197 () Bool (and .def_131 .def_196))
(define-fun .def_198 () Bool (and .def_65 .def_197))
(define-fun .def_199 () Bool (and .def_134 .def_198))
(define-fun .def_251 () Bool (and .def_56 .def_199))
(define-fun .def_310 () Bool (and .def_58 .def_251))
(define-fun .def_311 () Bool (and .def_137 .def_310))
(define-fun .def_312 () Bool (and .def_68 .def_311))
(define-fun .def_313 () Bool (and .def_71 .def_312))
(define-fun .def_314 () Bool (and .def_73 .def_313))
(define-fun .def_315 () Bool (and .def_217 .def_314))
(define-fun .def_316 () Bool (and .def_77 .def_315))
(define-fun .def_317 () Bool (and .def_81 .def_316))
(define-fun .def_484 () Bool (or .def_317 .def_483))
(define-fun .def_209 () Bool (and .def_131 .def_171))
(define-fun .def_210 () Bool (and .def_65 .def_209))
(define-fun .def_211 () Bool (and .def_134 .def_210))
(define-fun .def_212 () Bool (and .def_52 .def_211))
(define-fun .def_213 () Bool (and .def_54 .def_212))
(define-fun .def_302 () Bool (and .def_56 .def_213))
(define-fun .def_303 () Bool (and .loc.12 .def_302))
(define-fun .def_304 () Bool (and .def_71 .def_303))
(define-fun .def_305 () Bool (and .def_73 .def_304))
(define-fun .def_306 () Bool (and .def_217 .def_305))
(define-fun .def_307 () Bool (and .def_77 .def_306))
(define-fun .def_308 () Bool (and .def_79 .def_307))
(define-fun .def_101 () Bool (= .x.536 0))
(define-fun .def_222 () Bool (or .def_50 .def_101))
(define-fun .def_309 () Bool (and .def_222 .def_308))
(define-fun .def_485 () Bool (or .def_309 .def_484))
(define-fun .def_200 () Bool (and .def_54 .def_199))
(define-fun .def_294 () Bool (and .def_56 .def_200))
(define-fun .def_295 () Bool (and .def_137 .def_294))
(define-fun .def_296 () Bool (and .loc.9 .def_295))
(define-fun .def_297 () Bool (and .loc.10 .def_296))
(define-fun .def_298 () Bool (and .loc.11 .def_297))
(define-fun .def_299 () Bool (and .def_73 .def_298))
(define-fun .def_300 () Bool (and .def_79 .def_299))
(define-fun .def_301 () Bool (and .def_81 .def_300))
(define-fun .def_486 () Bool (or .def_301 .def_485))
(define-fun .def_177 () Bool (and .def_54 .def_176))
(define-fun .def_285 () Bool (and .def_56 .def_177))
(define-fun .def_286 () Bool (and .def_137 .def_285))
(define-fun .def_287 () Bool (and .loc.9 .def_286))
(define-fun .def_288 () Bool (and .loc.10 .def_287))
(define-fun .def_289 () Bool (and .loc.11 .def_288))
(define-fun .def_290 () Bool (and .def_73 .def_289))
(define-fun .def_291 () Bool (and .def_79 .def_290))
(define-fun .def_292 () Bool (and .def_185 .def_291))
(define-fun .def_293 () Bool (and .def_81 .def_292))
(define-fun .def_487 () Bool (or .def_293 .def_486))
(define-fun .def_278 () (Array Int Int) (store .def_158 .def_157 44))
(define-fun .def_279 () (Array Int (Array Int Int)) (store .def_14 .def_34 .def_278))
(define-fun .def_280 () Bool (= .x.522 .def_279))
(define-fun .def_281 () Bool (and .def_148 .def_280))
(define-fun .def_282 () Bool (and .def_152 .def_281))
(define-fun .def_283 () Bool (or .def_50 .def_282))
(define-fun .def_269 () Bool (and .def_56 .def_136))
(define-fun .def_270 () Bool (and .def_137 .def_269))
(define-fun .def_271 () Bool (and .loc.10 .def_270))
(define-fun .def_272 () Bool (and .loc.11 .def_271))
(define-fun .def_273 () Bool (and .def_71 .def_272))
(define-fun .def_274 () Bool (and .def_73 .def_273))
(define-fun .def_275 () Bool (and .def_79 .def_274))
(define-fun .def_276 () Bool (and .def_81 .def_275))
(define-fun .def_284 () Bool (and .def_276 .def_283))
(define-fun .def_488 () Bool (or .def_284 .def_487))
(define-fun .def_260 () Bool (and .def_56 .def_212))
(define-fun .def_261 () Bool (and .def_68 .def_260))
(define-fun .def_262 () Bool (and .loc.10 .def_261))
(define-fun .def_263 () Bool (and .loc.11 .def_262))
(define-fun .def_264 () Bool (and .def_71 .def_263))
(define-fun .def_265 () Bool (and .def_73 .def_264))
(define-fun .def_266 () Bool (and .def_79 .def_265))
(define-fun .def_267 () Bool (and .def_81 .def_266))
(define-fun .def_268 () Bool (and .def_222 .def_267))
(define-fun .def_489 () Bool (or .def_268 .def_488))
(define-fun .def_252 () Bool (and .def_137 .def_251))
(define-fun .def_253 () Bool (and .def_68 .def_252))
(define-fun .def_254 () Bool (and .loc.9 .def_253))
(define-fun .def_255 () Bool (and .loc.11 .def_254))
(define-fun .def_256 () Bool (and .def_73 .def_255))
(define-fun .def_257 () Bool (and .def_217 .def_256))
(define-fun .def_258 () Bool (and .def_79 .def_257))
(define-fun .def_259 () Bool (and .def_81 .def_258))
(define-fun .def_490 () Bool (or .def_259 .def_489))
(define-fun .def_241 () Bool (and .def_56 .def_176))
(define-fun .def_242 () Bool (and .def_137 .def_241))
(define-fun .def_243 () Bool (and .def_68 .def_242))
(define-fun .def_244 () Bool (and .loc.9 .def_243))
(define-fun .def_245 () Bool (and .loc.11 .def_244))
(define-fun .def_246 () Bool (and .def_73 .def_245))
(define-fun .def_247 () Bool (and .def_217 .def_246))
(define-fun .def_248 () Bool (and .def_79 .def_247))
(define-fun .def_249 () Bool (and .def_185 .def_248))
(define-fun .def_250 () Bool (and .def_81 .def_249))
(define-fun .def_491 () Bool (or .def_250 .def_490))
(define-fun .def_234 () (Array Int Int) (store .def_158 .def_157 43))
(define-fun .def_235 () (Array Int (Array Int Int)) (store .def_14 .def_34 .def_234))
(define-fun .def_236 () Bool (= .x.522 .def_235))
(define-fun .def_237 () Bool (and .def_148 .def_236))
(define-fun .def_238 () Bool (and .def_152 .def_237))
(define-fun .def_239 () Bool (or .def_50 .def_238))
(define-fun .def_224 () Bool (and .def_56 .def_135))
(define-fun .def_225 () Bool (and .def_137 .def_224))
(define-fun .def_226 () Bool (and .def_68 .def_225))
(define-fun .def_227 () Bool (and .loc.11 .def_226))
(define-fun .def_228 () Bool (and .def_71 .def_227))
(define-fun .def_229 () Bool (and .def_73 .def_228))
(define-fun .def_230 () Bool (and .def_217 .def_229))
(define-fun .def_231 () Bool (and .def_79 .def_230))
(define-fun .def_232 () Bool (and .def_81 .def_231))
(define-fun .def_240 () Bool (and .def_232 .def_239))
(define-fun .def_492 () Bool (or .def_240 .def_491))
(define-fun .def_214 () Bool (and .loc.11 .def_213))
(define-fun .def_215 () Bool (and .def_71 .def_214))
(define-fun .def_216 () Bool (and .def_73 .def_215))
(define-fun .def_218 () Bool (and .def_216 .def_217))
(define-fun .def_219 () Bool (and .def_75 .def_218))
(define-fun .def_220 () Bool (and .def_79 .def_219))
(define-fun .def_221 () Bool (and .def_81 .def_220))
(define-fun .def_223 () Bool (and .def_221 .def_222))
(define-fun .def_493 () Bool (or .def_223 .def_492))
(define-fun .def_201 () Bool (and .def_137 .def_200))
(define-fun .def_202 () Bool (and .loc.9 .def_201))
(define-fun .def_203 () Bool (and .loc.10 .def_202))
(define-fun .def_204 () Bool (and .def_73 .def_203))
(define-fun .def_205 () Bool (and .def_75 .def_204))
(define-fun .def_206 () Bool (and .def_77 .def_205))
(define-fun .def_207 () Bool (and .def_79 .def_206))
(define-fun .def_208 () Bool (and .def_81 .def_207))
(define-fun .def_494 () Bool (or .def_208 .def_493))
(define-fun .def_178 () Bool (and .def_137 .def_177))
(define-fun .def_179 () Bool (and .loc.9 .def_178))
(define-fun .def_180 () Bool (and .loc.10 .def_179))
(define-fun .def_181 () Bool (and .def_73 .def_180))
(define-fun .def_182 () Bool (and .def_75 .def_181))
(define-fun .def_183 () Bool (and .def_77 .def_182))
(define-fun .def_184 () Bool (and .def_79 .def_183))
(define-fun .def_186 () Bool (and .def_184 .def_185))
(define-fun .def_187 () Bool (and .def_81 .def_186))
(define-fun .def_495 () Bool (or .def_187 .def_494))
(define-fun .def_159 () (Array Int Int) (store .def_158 .def_157 42))
(define-fun .def_160 () (Array Int (Array Int Int)) (store .def_14 .def_34 .def_159))
(define-fun .def_161 () Bool (= .x.522 .def_160))
(define-fun .def_153 () Bool (and .def_148 .def_152))
(define-fun .def_162 () Bool (and .def_153 .def_161))
(define-fun .def_163 () Bool (or .def_50 .def_162))
(define-fun .def_138 () Bool (and .def_136 .def_137))
(define-fun .def_139 () Bool (and .loc.10 .def_138))
(define-fun .def_140 () Bool (and .def_71 .def_139))
(define-fun .def_141 () Bool (and .def_73 .def_140))
(define-fun .def_142 () Bool (and .def_75 .def_141))
(define-fun .def_143 () Bool (and .def_77 .def_142))
(define-fun .def_144 () Bool (and .def_79 .def_143))
(define-fun .def_145 () Bool (and .def_81 .def_144))
(define-fun .def_164 () Bool (and .def_145 .def_163))
(define-fun .def_496 () Bool (or .def_164 .def_495))
(define-fun .def_118 () Bool (= .def_26 .x.528))
(define-fun .def_116 () Bool (= .def_18 .x.524))
(define-fun .def_115 () Bool (= .def_22 .x.526))
(define-fun .def_117 () Bool (and .def_115 .def_116))
(define-fun .def_119 () Bool (and .def_117 .def_118))
(define-fun .def_497 () Bool (and .def_119 .def_496))
(define-fun .def_110 () Bool (= .x.524 0))
(define-fun .def_109 () Bool (= .x.528 0))
(define-fun .def_111 () Bool (and .def_109 .def_110))
(define-fun .def_107 () (Array Int Int) (store .def_10 0 0))
(define-fun .def_108 () Bool (= .def_88 .def_107))
(define-fun .def_112 () Bool (and .def_108 .def_111))
(define-fun .def_113 () Bool (or .def_50 .def_112))
(define-fun .def_96 () (Array Int Int) (store .def_22 .x.532 400000))
(define-fun .def_97 () Bool (= .x.526 .def_96))
(define-fun .def_93 () Int (select .def_88 .x.532))
(define-fun .def_94 () Bool (= .def_93 0))
(define-fun .def_98 () Bool (and .def_94 .def_97))
(define-fun .def_91 () Bool (= .x.532 0))
(define-fun .def_92 () Bool (not .def_91))
(define-fun .def_99 () Bool (and .def_92 .def_98))
(define-fun .def_89 () (Array Int Int) (store .def_88 .x.532 1))
(define-fun .def_90 () Bool (= .x.520 .def_89))
(define-fun .def_100 () Bool (and .def_90 .def_99))
(define-fun .def_102 () Bool (and .def_100 .def_101))
(define-fun .def_85 () Bool (<= .x.519 .x.532))
(define-fun .def_86 () Bool (not .def_85))
(define-fun .def_103 () Bool (and .def_86 .def_102))
(define-fun .def_84 () Bool (= .x.531 0))
(define-fun .def_104 () Bool (and .def_84 .def_103))
(define-fun .def_105 () Bool (or hhv_ULTIMATE.start_ULTIMATE.startEXIT_21_Bool .def_104))
(define-fun .def_62 () Bool (and .def_60 .def_61))
(define-fun .def_64 () Bool (and .def_62 .def_63))
(define-fun .def_66 () Bool (and .def_64 .def_65))
(define-fun .def_67 () Bool (and .def_52 .def_66))
(define-fun .def_69 () Bool (and .def_67 .def_68))
(define-fun .def_70 () Bool (and .loc.10 .def_69))
(define-fun .def_72 () Bool (and .def_70 .def_71))
(define-fun .def_74 () Bool (and .def_72 .def_73))
(define-fun .def_76 () Bool (and .def_74 .def_75))
(define-fun .def_78 () Bool (and .def_76 .def_77))
(define-fun .def_80 () Bool (and .def_78 .def_79))
(define-fun .def_82 () Bool (and .def_80 .def_81))
(define-fun .def_106 () Bool (and .def_82 .def_105))
(define-fun .def_114 () Bool (and .def_106 .def_113))
(define-fun .def_498 () Bool (or .def_114 .def_497))
(define-fun .def_510 () Bool (! (and .def_498 .def_509) :trans true))
(define-fun .def_526 () Bool (and .def_54 .def_137))
(define-fun .def_527 () Bool (and .def_56 .def_526))
(define-fun .def_528 () Bool (and .def_58 .def_527))
(define-fun .def_529 () Bool (and .def_50 .def_528))
(define-fun .def_530 () Bool (! (not .def_529) :invar-property 0))
(assert true)
